(declare-fun main@%_756_0 () Bool)
(declare-fun main@%_749_0 () (_ BitVec 4))
(declare-fun main@%_888_0 () Bool)
(declare-fun main@%_706_0 () Bool)
(declare-fun main@%_887_0 () Bool)
(declare-fun main@%_705_0 () Bool)
(declare-fun main@%_880_0 () Bool)
(declare-fun main@%_680_0 () Bool)
(declare-fun main@%_855_0 () Bool)
(declare-fun main@%_655_0 () Bool)
(declare-fun main@%_837_0 () (_ BitVec 12))
(declare-fun main@%_637_0 () (_ BitVec 12))
(declare-fun main@%_830_0 () Bool)
(declare-fun main@%_630_0 () Bool)
(declare-fun main@%_849_0 () (_ BitVec 4))
(declare-fun main@%_649_0 () (_ BitVec 4))
(declare-fun main@%_806_0 () Bool)
(declare-fun main@%_606_0 () Bool)
(declare-fun main@%_805_0 () Bool)
(declare-fun main@%_605_0 () Bool)
(declare-fun main@%_787_0 () (_ BitVec 12))
(declare-fun main@%_587_0 () (_ BitVec 12))
(declare-fun main@%_780_0 () Bool)
(declare-fun main@%_580_0 () Bool)
(declare-fun main@%_799_0 () (_ BitVec 4))
(declare-fun main@%_599_0 () (_ BitVec 4))
(declare-fun main@%_556_0 () Bool)
(declare-fun main@%_737_0 () (_ BitVec 12))
(declare-fun main@%_537_0 () (_ BitVec 12))
(declare-fun main@%_730_0 () Bool)
(declare-fun main@%_530_0 () Bool)
(declare-fun main@%_549_0 () (_ BitVec 4))
(declare-fun main@%_206_0 () Bool)
(declare-fun main@%_487_0 () (_ BitVec 12))
(declare-fun main@%_205_0 () Bool)
(declare-fun main@%_199_0 () (_ BitVec 4))
(declare-fun main@%_134_0 () Bool)
(declare-fun main@%_499_0 () (_ BitVec 4))
(declare-fun main@%_149_0 () (_ BitVec 4))
(declare-fun main@%_430_0 () Bool)
(declare-fun main@%_97_0 () (_ BitVec 12))
(declare-fun main@%_456_0 () Bool)
(declare-fun main@%_90_0 () Bool)
(declare-fun main@%_111_0 () Bool)
(declare-fun main@%_387_0 () (_ BitVec 12))
(declare-fun main@%_53_0 () (_ BitVec 12))
(declare-fun main@%_405_0 () Bool)
(declare-fun main@%_755_0 () Bool)
(declare-fun main@%_555_0 () Bool)
(declare-fun sea.sp0_0 () (_ BitVec 64))
(declare-fun main@%_141_0 () (_ BitVec 12))
(declare-fun main@%_505_0 () Bool)
(declare-fun main@%_187_0 () (_ BitVec 12))
(declare-fun main@%_46_0 () Bool)
(declare-fun main@%_399_0 () (_ BitVec 4))
(declare-fun main@%_110_0 () Bool)
(declare-fun main@%_856_0 () Bool)
(declare-fun main@%_656_0 () Bool)
(declare-fun main@%_0_0 () (_ BitVec 4))
(declare-fun main@%_5_0 () (_ BitVec 12))
(declare-fun main@%_349_0 () (_ BitVec 4))
(declare-fun main@%_105_0 () (_ BitVec 4))
(declare-fun main@%_1_0 () Bool)
(declare-fun main@%_2_0 () Bool)
(declare-fun main@%_255_0 () Bool)
(declare-fun main@%_18_0 () (_ BitVec 4))
(declare-fun main@%_299_0 () (_ BitVec 4))
(declare-fun main@%_881_0 () (_ BitVec 12))
(declare-fun main@%_687_0 () (_ BitVec 12))
(declare-fun main@%_4_0 () Bool)
(declare-fun main@%_356_0 () Bool)
(declare-fun main@%_155_0 () Bool)
(declare-fun main@%_437_0 () (_ BitVec 12))
(declare-fun main@%_886_0 () (_ BitVec 4))
(declare-fun main@%_699_0 () (_ BitVec 4))
(declare-fun main@%_23_0 () Bool)
(declare-fun main@%_280_0 () Bool)
(declare-fun main@%_66_0 () Bool)
(declare-fun main@%_156_0 () Bool)
(declare-fun main@%_24_0 () Bool)
(declare-fun main@%_180_0 () Bool)
(declare-fun main@%_67_0 () Bool)
(declare-fun main@%_61_0 () (_ BitVec 4))
(declare-fun main@%_337_0 () (_ BitVec 12))
(declare-fun main@%_249_0 () (_ BitVec 4))
(declare-fun main@%_230_0 () Bool)
(declare-fun main@%_237_0 () (_ BitVec 12))
(declare-fun main@%_256_0 () Bool)
(declare-fun main@%_287_0 () (_ BitVec 12))
(declare-fun main@%_305_0 () Bool)
(declare-fun main@%_306_0 () Bool)
(declare-fun main@%_330_0 () Bool)
(declare-fun main@%_355_0 () Bool)
(declare-fun main@%_380_0 () Bool)
(declare-fun main@%_406_0 () Bool)
(declare-fun main@%_449_0 () (_ BitVec 4))
(declare-fun main@%_455_0 () Bool)
(declare-fun main@%_480_0 () Bool)
(declare-fun main@%_506_0 () Bool)

(assert (let ((a!1 (or (= (bvand main@%_0_0 #xe) #x4)
               (and (= main@%_0_0 #x1) (or main@%_1_0 (xor main@%_2_0 true)))))
      (a!2 (or (= main@%_0_0 #xc)
               (and (= main@%_0_0 #x4) (or main@%_1_0 (xor main@%_2_0 true)))
               (xor main@%_4_0 true)))
      (a!4 (and (or (= (bvand main@%_18_0 #xd) #xd)
                    (= (bvand main@%_18_0 #xe) #xa))
                (or main@%_23_0 (xor main@%_24_0 true))))
      (a!6 (or (= (bvand main@%_18_0 #xe) #x4)
               (and (= main@%_18_0 #x1) (or main@%_23_0 (xor main@%_24_0 true)))))
      (a!9 (and (or (= (bvand main@%_61_0 #xd) #xd)
                    (= (bvand main@%_61_0 #xe) #xa))
                (or main@%_66_0 (xor main@%_67_0 true))))
      (a!10 (or (= main@%_18_0 #xc)
                (and (= main@%_18_0 #x4)
                     (or main@%_23_0 (xor main@%_24_0 true)))
                (xor main@%_46_0 true)))
      (a!14 (or (= (bvand main@%_61_0 #xe) #x4)
                (and (= main@%_61_0 #x1)
                     (or main@%_66_0 (xor main@%_67_0 true)))))
      (a!16 (and (or (= (bvand main@%_105_0 #xd) #xd)
                     (= (bvand main@%_105_0 #xe) #xa))
                 (or main@%_110_0 (xor main@%_111_0 true))))
      (a!17 (or (= main@%_61_0 #xc)
                (and (= main@%_61_0 #x4)
                     (or main@%_66_0 (xor main@%_67_0 true)))
                (xor main@%_90_0 true)))
      (a!21 (or (= (bvand main@%_105_0 #xe) #x4)
                (and (= main@%_105_0 #x1)
                     (or main@%_110_0 (xor main@%_111_0 true)))))
      (a!23 (and (or (= (bvand main@%_149_0 #xd) #xd)
                     (= (bvand main@%_149_0 #xe) #xa))
                 (or main@%_155_0 (xor main@%_156_0 true))))
      (a!24 (or (= main@%_105_0 #xc)
                (and (= main@%_105_0 #x4)
                     (or main@%_110_0 (xor main@%_111_0 true)))
                (xor main@%_134_0 true)))
      (a!28 (or (= (bvand main@%_149_0 #xe) #x4)
                (and (= main@%_149_0 #x1)
                     (or main@%_155_0 (xor main@%_156_0 true)))))
      (a!31 (or (= main@%_149_0 #xc)
                (and (= main@%_149_0 #x4)
                     (or main@%_155_0 (xor main@%_156_0 true)))
                (xor main@%_180_0 true)))
      (a!35 (and (or (= (bvand main@%_199_0 #xd) #xd)
                     (= (bvand main@%_199_0 #xe) #xa))
                 (or main@%_205_0 (xor main@%_206_0 true))))
      (a!36 (or (= (bvand main@%_199_0 #xe) #x4)
                (and (= main@%_199_0 #x1)
                     (or main@%_205_0 (xor main@%_206_0 true)))))
      (a!39 (or (= main@%_199_0 #xc)
                (and (= main@%_199_0 #x4)
                     (or main@%_205_0 (xor main@%_206_0 true)))
                (xor main@%_230_0 true)))
      (a!43 (and (or (= (bvand main@%_249_0 #xd) #xd)
                     (= (bvand main@%_249_0 #xe) #xa))
                 (or main@%_255_0 (xor main@%_256_0 true))))
      (a!44 (or (= (bvand main@%_249_0 #xe) #x4)
                (and (= main@%_249_0 #x1)
                     (or main@%_255_0 (xor main@%_256_0 true)))))
      (a!47 (or (= main@%_249_0 #xc)
                (and (= main@%_249_0 #x4)
                     (or main@%_255_0 (xor main@%_256_0 true)))
                (xor main@%_280_0 true)))
      (a!51 (and (or (= (bvand main@%_299_0 #xd) #xd)
                     (= (bvand main@%_299_0 #xe) #xa))
                 (or main@%_305_0 (xor main@%_306_0 true))))
      (a!52 (or (= (bvand main@%_299_0 #xe) #x4)
                (and (= main@%_299_0 #x1)
                     (or main@%_305_0 (xor main@%_306_0 true)))))
      (a!55 (or (= main@%_299_0 #xc)
                (and (= main@%_299_0 #x4)
                     (or main@%_305_0 (xor main@%_306_0 true)))
                (xor main@%_330_0 true)))
      (a!59 (and (or (= (bvand main@%_349_0 #xd) #xd)
                     (= (bvand main@%_349_0 #xe) #xa))
                 (or main@%_355_0 (xor main@%_356_0 true))))
      (a!60 (or (= (bvand main@%_349_0 #xe) #x4)
                (and (= main@%_349_0 #x1)
                     (or main@%_355_0 (xor main@%_356_0 true)))))
      (a!63 (or (= main@%_349_0 #xc)
                (and (= main@%_349_0 #x4)
                     (or main@%_355_0 (xor main@%_356_0 true)))
                (xor main@%_380_0 true)))
      (a!67 (and (or (= (bvand main@%_399_0 #xd) #xd)
                     (= (bvand main@%_399_0 #xe) #xa))
                 (or main@%_405_0 (xor main@%_406_0 true))))
      (a!68 (or (= (bvand main@%_399_0 #xe) #x4)
                (and (= main@%_399_0 #x1)
                     (or main@%_405_0 (xor main@%_406_0 true)))))
      (a!71 (or (= main@%_399_0 #xc)
                (and (= main@%_399_0 #x4)
                     (or main@%_405_0 (xor main@%_406_0 true)))
                (xor main@%_430_0 true)))
      (a!75 (and (or (= (bvand main@%_449_0 #xd) #xd)
                     (= (bvand main@%_449_0 #xe) #xa))
                 (or main@%_455_0 (xor main@%_456_0 true))))
      (a!76 (or (= (bvand main@%_449_0 #xe) #x4)
                (and (= main@%_449_0 #x1)
                     (or main@%_455_0 (xor main@%_456_0 true)))))
      (a!79 (or (= main@%_449_0 #xc)
                (and (= main@%_449_0 #x4)
                     (or main@%_455_0 (xor main@%_456_0 true)))
                (xor main@%_480_0 true)))
      (a!83 (and (or (= (bvand main@%_499_0 #xd) #xd)
                     (= (bvand main@%_499_0 #xe) #xa))
                 (or main@%_505_0 (xor main@%_506_0 true))))
      (a!84 (or (= (bvand main@%_499_0 #xe) #x4)
                (and (= main@%_499_0 #x1)
                     (or main@%_505_0 (xor main@%_506_0 true)))))
      (a!87 (or (= main@%_499_0 #xc)
                (and (= main@%_499_0 #x4)
                     (or main@%_505_0 (xor main@%_506_0 true)))
                (xor main@%_530_0 true)))
      (a!91 (and (or (= (bvand main@%_549_0 #xd) #xd)
                     (= (bvand main@%_549_0 #xe) #xa))
                 (or main@%_555_0 (xor main@%_556_0 true))))
      (a!92 (or (= (bvand main@%_549_0 #xe) #x4)
                (and (= main@%_549_0 #x1)
                     (or main@%_555_0 (xor main@%_556_0 true)))))
      (a!95 (or (= main@%_549_0 #xc)
                (and (= main@%_549_0 #x4)
                     (or main@%_555_0 (xor main@%_556_0 true)))
                (xor main@%_580_0 true)))
      (a!99 (and (or (= (bvand main@%_599_0 #xd) #xd)
                     (= (bvand main@%_599_0 #xe) #xa))
                 (or main@%_605_0 (xor main@%_606_0 true))))
      (a!100 (or (= (bvand main@%_599_0 #xe) #x4)
                 (and (= main@%_599_0 #x1)
                      (or main@%_605_0 (xor main@%_606_0 true)))))
      (a!103 (or (= main@%_599_0 #xc)
                 (and (= main@%_599_0 #x4)
                      (or main@%_605_0 (xor main@%_606_0 true)))
                 (xor main@%_630_0 true)))
      (a!107 (and (or (= (bvand main@%_649_0 #xd) #xd)
                      (= (bvand main@%_649_0 #xe) #xa))
                  (or main@%_655_0 (xor main@%_656_0 true))))
      (a!108 (or (= (bvand main@%_649_0 #xe) #x4)
                 (and (= main@%_649_0 #x1)
                      (or main@%_655_0 (xor main@%_656_0 true)))))
      (a!111 (or (= main@%_649_0 #xc)
                 (and (= main@%_649_0 #x4)
                      (or main@%_655_0 (xor main@%_656_0 true)))
                 (xor main@%_680_0 true)))
      (a!115 (and (or (= (bvand main@%_699_0 #xd) #xd)
                      (= (bvand main@%_699_0 #xe) #xa))
                  (or main@%_705_0 (xor main@%_706_0 true))))
      (a!116 (or (= (bvand main@%_699_0 #xe) #x4)
                 (and (= main@%_699_0 #x1)
                      (or main@%_705_0 (xor main@%_706_0 true)))))
      (a!119 (or (= main@%_699_0 #xc)
                 (and (= main@%_699_0 #x4)
                      (or main@%_705_0 (xor main@%_706_0 true)))
                 (xor main@%_730_0 true)))
      (a!123 (and (or (= (bvand main@%_749_0 #xd) #xd)
                      (= (bvand main@%_749_0 #xe) #xa))
                  (or main@%_755_0 (xor main@%_756_0 true))))
      (a!124 (or (= (bvand main@%_749_0 #xe) #x4)
                 (and (= main@%_749_0 #x1)
                      (or main@%_755_0 (xor main@%_756_0 true)))))
      (a!127 (or (= main@%_749_0 #xc)
                 (and (= main@%_749_0 #x4)
                      (or main@%_755_0 (xor main@%_756_0 true)))
                 (xor main@%_780_0 true)))
      (a!131 (and (or (= (bvand main@%_799_0 #xd) #xd)
                      (= (bvand main@%_799_0 #xe) #xa))
                  (or main@%_805_0 (xor main@%_806_0 true))))
      (a!132 (or (= (bvand main@%_799_0 #xe) #x4)
                 (and (= main@%_799_0 #x1)
                      (or main@%_805_0 (xor main@%_806_0 true)))))
      (a!135 (or (= main@%_799_0 #xc)
                 (and (= main@%_799_0 #x4)
                      (or main@%_805_0 (xor main@%_806_0 true)))
                 (xor main@%_830_0 true)))
      (a!139 (and (or (= (bvand main@%_849_0 #xd) #xd)
                      (= (bvand main@%_849_0 #xe) #xa))
                  (or main@%_855_0 (xor main@%_856_0 true))))
      (a!140 (or (= (bvand main@%_849_0 #xe) #x4)
                 (and (= main@%_849_0 #x1)
                      (or main@%_855_0 (xor main@%_856_0 true)))))
      (a!143 (or (= main@%_849_0 #xc)
                 (and (= main@%_849_0 #x4)
                      (or main@%_855_0 (xor main@%_856_0 true)))
                 (xor main@%_880_0 true)))
      (a!146 (and (or (= (bvand main@%_886_0 #xd) #xd)
                      (= (bvand main@%_886_0 #xe) #xa))
                  (or main@%_887_0 (xor main@%_888_0 true))))
      (a!148 (or (= (bvand main@%_886_0 #xe) #x4)
                 (and (= main@%_886_0 #x1)
                      (or main@%_887_0 (xor main@%_888_0 true))))))
(let ((a!3 (xor (not (= (ite a!2 main@%_5_0 #x000) #x000)) true))
      (a!7 (ite (ite (not (= main@%_18_0 #x0)) a!1 false) #b001 #b000))
      (a!11 (and main@%_46_0
                 (not (= (ite a!2 main@%_5_0 #x000) #x000))
                 (or (= main@%_18_0 #xf) (= (bvand main@%_18_0 #xe) #x8)))))
(let ((a!5 (or (and (or (= main@%_18_0 #x8) (= main@%_18_0 #xf)) a!3) a!4))
      (a!12 (ite a!10
                 main@%_53_0
                 (bvadd (ite a!2 main@%_5_0 #x000)
                        ((_ sign_extend 11) (ite a!11 #b1 #b0))))))
(let ((a!8 (ite (and a!1 a!5)
                ((_ sign_extend 2) (ite (xor a!1 true) #b1 #b0))
                (ite a!6 (ite a!1 #b010 #b001) a!7)))
      (a!13 (and (or (= main@%_61_0 #x8) (= main@%_61_0 #xf))
                 (xor (not (= a!12 #x000)) true)))
      (a!18 (and main@%_90_0
                 (or (= main@%_61_0 #xf) (= (bvand main@%_61_0 #xe) #x8))
                 (not (= a!12 #x000)))))
(let ((a!15 (ite (and (not (= a!8 #b000)) (or a!9 a!13))
                 (bvadd a!8 #b111)
                 (ite a!14
                      (bvadd a!8 #b001)
                      (ite (= main@%_61_0 #x0) #b000 a!8))))
      (a!19 (ite a!17
                 main@%_97_0
                 (bvadd a!12 ((_ sign_extend 11) (ite a!18 #b1 #b0))))))
(let ((a!20 (and (or (= main@%_105_0 #x8) (= main@%_105_0 #xf))
                 (xor (not (= a!19 #x000)) true)))
      (a!25 (and main@%_134_0
                 (or (= main@%_105_0 #xf) (= (bvand main@%_105_0 #xe) #x8))
                 (not (= a!19 #x000)))))
(let ((a!22 (ite (and (not (= a!15 #b000)) (or a!16 a!20))
                 (bvadd a!15 #b111)
                 (ite a!21
                      (bvadd a!15 #b001)
                      (ite (= main@%_105_0 #x0) #b000 a!15))))
      (a!26 (ite a!24
                 main@%_141_0
                 (bvadd a!19 ((_ sign_extend 11) (ite a!25 #b1 #b0))))))
(let ((a!27 (and (or (= main@%_149_0 #x8) (= main@%_149_0 #xf))
                 (xor (not (= a!26 #x000)) true)))
      (a!29 (ite (and (not (= a!22 #b101)) a!28)
                 (bvadd a!22 #b001)
                 (ite (= main@%_149_0 #x0) #b000 a!22)))
      (a!32 (and main@%_180_0
                 (or (= main@%_149_0 #xf) (= (bvand main@%_149_0 #xe) #x8))
                 (not (= a!26 #x000)))))
(let ((a!30 (ite (and (not (= a!22 #b000)) (or a!23 a!27))
                 (bvadd a!22 #b111)
                 a!29))
      (a!33 (ite a!31
                 main@%_187_0
                 (bvadd a!26 ((_ sign_extend 11) (ite a!32 #b1 #b0))))))
(let ((a!34 (and (or (= main@%_199_0 #x8) (= main@%_199_0 #xf))
                 (xor (not (= a!33 #x000)) true)))
      (a!37 (ite (and (not (= a!30 #b101)) a!36)
                 (bvadd a!30 #b001)
                 (ite (= main@%_199_0 #x0) #b000 a!30)))
      (a!40 (and main@%_230_0
                 (not (= a!33 #x000))
                 (or (= main@%_199_0 #xf) (= (bvand main@%_199_0 #xe) #x8)))))
(let ((a!38 (ite (and (not (= a!30 #b000)) (or a!34 a!35))
                 (bvadd a!30 #b111)
                 a!37))
      (a!41 (ite a!39
                 main@%_237_0
                 (bvadd a!33 ((_ sign_extend 11) (ite a!40 #b1 #b0))))))
(let ((a!42 (and (or (= main@%_249_0 #x8) (= main@%_249_0 #xf))
                 (xor (not (= a!41 #x000)) true)))
      (a!45 (ite (and (not (= a!38 #b101)) a!44)
                 (bvadd a!38 #b001)
                 (ite (= main@%_249_0 #x0) #b000 a!38)))
      (a!48 (and main@%_280_0
                 (not (= a!41 #x000))
                 (or (= main@%_249_0 #xf) (= (bvand main@%_249_0 #xe) #x8)))))
(let ((a!46 (ite (and (not (= a!38 #b000)) (or a!42 a!43))
                 (bvadd a!38 #b111)
                 a!45))
      (a!49 (ite a!47
                 main@%_287_0
                 (bvadd a!41 ((_ sign_extend 11) (ite a!48 #b1 #b0))))))
(let ((a!50 (and (or (= main@%_299_0 #x8) (= main@%_299_0 #xf))
                 (xor (not (= a!49 #x000)) true)))
      (a!53 (ite (and (not (= a!46 #b101)) a!52)
                 (bvadd a!46 #b001)
                 (ite (= main@%_299_0 #x0) #b000 a!46)))
      (a!56 (and main@%_330_0
                 (not (= a!49 #x000))
                 (or (= main@%_299_0 #xf) (= (bvand main@%_299_0 #xe) #x8)))))
(let ((a!54 (ite (and (not (= a!46 #b000)) (or a!50 a!51))
                 (bvadd a!46 #b111)
                 a!53))
      (a!57 (ite a!55
                 main@%_337_0
                 (bvadd a!49 ((_ sign_extend 11) (ite a!56 #b1 #b0))))))
(let ((a!58 (and (or (= main@%_349_0 #x8) (= main@%_349_0 #xf))
                 (xor (not (= a!57 #x000)) true)))
      (a!61 (ite (and (not (= a!54 #b101)) a!60)
                 (bvadd a!54 #b001)
                 (ite (= main@%_349_0 #x0) #b000 a!54)))
      (a!64 (and main@%_380_0
                 (not (= a!57 #x000))
                 (or (= main@%_349_0 #xf) (= (bvand main@%_349_0 #xe) #x8)))))
(let ((a!62 (ite (and (not (= a!54 #b000)) (or a!58 a!59))
                 (bvadd a!54 #b111)
                 a!61))
      (a!65 (ite a!63
                 main@%_387_0
                 (bvadd a!57 ((_ sign_extend 11) (ite a!64 #b1 #b0))))))
(let ((a!66 (and (or (= main@%_399_0 #x8) (= main@%_399_0 #xf))
                 (xor (not (= a!65 #x000)) true)))
      (a!69 (ite (and (not (= a!62 #b101)) a!68)
                 (bvadd a!62 #b001)
                 (ite (= main@%_399_0 #x0) #b000 a!62)))
      (a!72 (and main@%_430_0
                 (not (= a!65 #x000))
                 (or (= main@%_399_0 #xf) (= (bvand main@%_399_0 #xe) #x8)))))
(let ((a!70 (ite (and (not (= a!62 #b000)) (or a!66 a!67))
                 (bvadd a!62 #b111)
                 a!69))
      (a!73 (ite a!71
                 main@%_437_0
                 (bvadd a!65 ((_ sign_extend 11) (ite a!72 #b1 #b0))))))
(let ((a!74 (and (or (= main@%_449_0 #x8) (= main@%_449_0 #xf))
                 (xor (not (= a!73 #x000)) true)))
      (a!77 (ite (and (not (= a!70 #b101)) a!76)
                 (bvadd a!70 #b001)
                 (ite (= main@%_449_0 #x0) #b000 a!70)))
      (a!80 (and main@%_480_0
                 (not (= a!73 #x000))
                 (or (= main@%_449_0 #xf) (= (bvand main@%_449_0 #xe) #x8)))))
(let ((a!78 (ite (and (not (= a!70 #b000)) (or a!74 a!75))
                 (bvadd a!70 #b111)
                 a!77))
      (a!81 (ite a!79
                 main@%_487_0
                 (bvadd a!73 ((_ sign_extend 11) (ite a!80 #b1 #b0))))))
(let ((a!82 (and (or (= main@%_499_0 #x8) (= main@%_499_0 #xf))
                 (xor (not (= a!81 #x000)) true)))
      (a!85 (ite (and (not (= a!78 #b101)) a!84)
                 (bvadd a!78 #b001)
                 (ite (= main@%_499_0 #x0) #b000 a!78)))
      (a!88 (and main@%_530_0
                 (not (= a!81 #x000))
                 (or (= main@%_499_0 #xf) (= (bvand main@%_499_0 #xe) #x8)))))
(let ((a!86 (ite (and (not (= a!78 #b000)) (or a!82 a!83))
                 (bvadd a!78 #b111)
                 a!85))
      (a!89 (ite a!87
                 main@%_537_0
                 (bvadd a!81 ((_ sign_extend 11) (ite a!88 #b1 #b0))))))
(let ((a!90 (and (or (= main@%_549_0 #x8) (= main@%_549_0 #xf))
                 (xor (not (= a!89 #x000)) true)))
      (a!93 (ite (and (not (= a!86 #b101)) a!92)
                 (bvadd a!86 #b001)
                 (ite (= main@%_549_0 #x0) #b000 a!86)))
      (a!96 (and main@%_580_0
                 (not (= a!89 #x000))
                 (or (= main@%_549_0 #xf) (= (bvand main@%_549_0 #xe) #x8)))))
(let ((a!94 (ite (and (not (= a!86 #b000)) (or a!90 a!91))
                 (bvadd a!86 #b111)
                 a!93))
      (a!97 (ite a!95
                 main@%_587_0
                 (bvadd a!89 ((_ sign_extend 11) (ite a!96 #b1 #b0))))))
(let ((a!98 (and (or (= main@%_599_0 #x8) (= main@%_599_0 #xf))
                 (xor (not (= a!97 #x000)) true)))
      (a!101 (ite (and (not (= a!94 #b101)) a!100)
                  (bvadd a!94 #b001)
                  (ite (= main@%_599_0 #x0) #b000 a!94)))
      (a!104 (and main@%_630_0
                  (not (= a!97 #x000))
                  (or (= main@%_599_0 #xf) (= (bvand main@%_599_0 #xe) #x8)))))
(let ((a!102 (ite (and (not (= a!94 #b000)) (or a!98 a!99))
                  (bvadd a!94 #b111)
                  a!101))
      (a!105 (ite a!103
                  main@%_637_0
                  (bvadd a!97 ((_ sign_extend 11) (ite a!104 #b1 #b0))))))
(let ((a!106 (and (or (= main@%_649_0 #x8) (= main@%_649_0 #xf))
                  (xor (not (= a!105 #x000)) true)))
      (a!109 (ite (and (not (= a!102 #b101)) a!108)
                  (bvadd a!102 #b001)
                  (ite (= main@%_649_0 #x0) #b000 a!102)))
      (a!112 (and main@%_680_0
                  (not (= a!105 #x000))
                  (or (= main@%_649_0 #xf) (= (bvand main@%_649_0 #xe) #x8)))))
(let ((a!110 (ite (and (not (= a!102 #b000)) (or a!106 a!107))
                  (bvadd a!102 #b111)
                  a!109))
      (a!113 (ite a!111
                  main@%_687_0
                  (bvadd a!105 ((_ sign_extend 11) (ite a!112 #b1 #b0))))))
(let ((a!114 (and (or (= main@%_699_0 #x8) (= main@%_699_0 #xf))
                  (xor (not (= a!113 #x000)) true)))
      (a!117 (ite (and (not (= a!110 #b101)) a!116)
                  (bvadd a!110 #b001)
                  (ite (= main@%_699_0 #x0) #b000 a!110)))
      (a!120 (and main@%_730_0
                  (not (= a!113 #x000))
                  (or (= main@%_699_0 #xf) (= (bvand main@%_699_0 #xe) #x8)))))
(let ((a!118 (ite (and (not (= a!110 #b000)) (or a!114 a!115))
                  (bvadd a!110 #b111)
                  a!117))
      (a!121 (ite a!119
                  main@%_737_0
                  (bvadd a!113 ((_ sign_extend 11) (ite a!120 #b1 #b0))))))
(let ((a!122 (and (or (= main@%_749_0 #x8) (= main@%_749_0 #xf))
                  (xor (not (= a!121 #x000)) true)))
      (a!125 (ite (and (not (= a!118 #b101)) a!124)
                  (bvadd a!118 #b001)
                  (ite (= main@%_749_0 #x0) #b000 a!118)))
      (a!128 (and main@%_780_0
                  (not (= a!121 #x000))
                  (or (= main@%_749_0 #xf) (= (bvand main@%_749_0 #xe) #x8)))))
(let ((a!126 (ite (and (not (= a!118 #b000)) (or a!122 a!123))
                  (bvadd a!118 #b111)
                  a!125))
      (a!129 (ite a!127
                  main@%_787_0
                  (bvadd a!121 ((_ sign_extend 11) (ite a!128 #b1 #b0))))))
(let ((a!130 (and (or (= main@%_799_0 #x8) (= main@%_799_0 #xf))
                  (xor (not (= a!129 #x000)) true)))
      (a!133 (ite (and (not (= a!126 #b101)) a!132)
                  (bvadd a!126 #b001)
                  (ite (= main@%_799_0 #x0) #b000 a!126)))
      (a!136 (and main@%_830_0
                  (not (= a!129 #x000))
                  (or (= main@%_799_0 #xf) (= (bvand main@%_799_0 #xe) #x8)))))
(let ((a!134 (ite (and (not (= a!126 #b000)) (or a!130 a!131))
                  (bvadd a!126 #b111)
                  a!133))
      (a!137 (ite a!135
                  main@%_837_0
                  (bvadd a!129 ((_ sign_extend 11) (ite a!136 #b1 #b0))))))
(let ((a!138 (and (or (= main@%_849_0 #x8) (= main@%_849_0 #xf))
                  (xor (not (= a!137 #x000)) true)))
      (a!141 (ite (and (not (= a!134 #b101)) a!140)
                  (bvadd a!134 #b001)
                  (ite (= main@%_849_0 #x0) #b000 a!134)))
      (a!144 (and main@%_880_0
                  (not (= a!137 #x000))
                  (or (= main@%_849_0 #xf) (= (bvand main@%_849_0 #xe) #x8)))))
(let ((a!142 (ite (and (not (= a!134 #b000)) (or a!138 a!139))
                  (bvadd a!134 #b111)
                  a!141))
      (a!145 (ite a!143
                  main@%_881_0
                  (bvadd a!137 ((_ sign_extend 11) (ite a!144 #b1 #b0))))))
(let ((a!147 (or (and (= a!145 #x000)
                      (or (= main@%_886_0 #x8) (= main@%_886_0 #xf)))
                 a!146))
      (a!149 (ite (and (not (= a!142 #b101)) a!148)
                  (bvadd a!142 #b001)
                  (ite (= main@%_886_0 #x0) #b000 a!142))))
(let ((a!150 (ite (and (not (= a!142 #b000)) a!147) (bvadd a!142 #b111) a!149)))
(let ((a!151 (xor (or (not (= a!142 #b110)) (= a!150 #b111)) true)))
(let ((a!152 (ite (or (not (= a!134 #b110)) (= a!142 #b111))
                  (and true a!151)
                  true)))
(let ((a!153 (ite (or (not (= a!126 #b110)) (= a!134 #b111)) a!152 true)))
(let ((a!154 (ite (or (not (= a!118 #b110)) (= a!126 #b111)) a!153 true)))
(let ((a!155 (ite (or (not (= a!110 #b110)) (= a!118 #b111)) a!154 true)))
(let ((a!156 (ite (or (not (= a!102 #b110)) (= a!110 #b111)) a!155 true)))
(let ((a!157 (ite (or (not (= a!94 #b110)) (= a!102 #b111)) a!156 true)))
(let ((a!158 (ite (or (not (= a!86 #b110)) (= a!94 #b111)) a!157 true)))
(let ((a!159 (ite (or (not (= a!78 #b110)) (= a!86 #b111)) a!158 true)))
(let ((a!160 (ite (or (not (= a!70 #b110)) (= a!78 #b111)) a!159 true)))
(let ((a!161 (ite (or (not (= a!62 #b110)) (= a!70 #b111)) a!160 true)))
(let ((a!162 (ite (or (not (= a!54 #b110)) (= a!62 #b111)) a!161 true)))
(let ((a!163 (ite (or (not (= a!46 #b110)) (= a!54 #b111)) a!162 true)))
(let ((a!164 (ite (or (not (= a!38 #b110)) (= a!46 #b111)) a!163 true)))
(let ((a!165 (ite (or (not (= a!30 #b110)) (= a!38 #b111)) a!164 true)))
(let ((a!166 (ite (or (not (= a!22 #b110)) (= a!30 #b111)) a!165 true)))
(let ((a!167 (ite (or (not (= a!15 #b110)) (= a!22 #b111)) a!166 true)))
  (and (= #b000 ((_ extract 2 0) sea.sp0_0))
       (bvule sea.sp0_0 #x00000000c0000000)
       (bvuge sea.sp0_0 #x00000000bf700000)
       a!167))))))))))))))))))))))))))))))))))))))))))))))))))))))))))
(check-sat)
